202
498
371
114
101
189
142
32
416
652
113
179
120
149
57
0
67
238
290
164
144
66
236
160
162
153
102
200
166
207
69
329
122
45
124
40
172
60
247
63
59
0
267
214
48
124
114
47
37
109
157
101
35
574
283
112
98
169
77
49
109
147
204
61
149
164
138
101
261
78
156
102
78
177
157
110
802
280
70
152
228
170
93
43
63
328
189
555
179
108
166
88
84
0
56
716
154
76
80
191
